SDVRP instances/custom_instances/p03_7_splitx10_0.vrp
NAME:p03_7_splitx10_
BEST_KNOWN: 0
COMMENT: 0
DIMENSION: 501
CAPACITY: 2000
EDGE_WEIGHT_FORMAT: FUNCTION
EDGE_WEIGHT_TYPE: EXACT_2D
NODE_COORD_SECTION
1 0.00000 0.00000
2 -29 -8
3 -29 -8
4 -29 -8
5 -29 -8
6 -29 -8
7 -29 -8
8 -29 -8
9 -21 14
10 -21 14
11 -21 14
12 -21 14
13 -21 14
14 -21 14
15 -21 14
16 2 -29
17 2 -29
18 2 -29
19 2 -29
20 -4 48
21 -4 48
22 -4 48
23 -4 48
24 -4 48
25 -4 48
26 -4 48
27 -4 48
28 32 -49
29 32 -49
30 32 -49
31 32 -49
32 -30 -47
33 -30 -47
34 -30 -47
35 -30 -47
36 -30 -47
37 -30 -47
38 -49 15
39 -49 15
40 -49 15
41 -49 15
42 -49 15
43 -49 15
44 12 -30
45 12 -30
46 12 -30
47 12 -30
48 12 -30
49 -42 40
50 -42 40
51 -42 40
52 -42 40
53 -42 40
54 15 -13
55 15 -13
56 15 -13
57 15 -13
58 15 -13
59 -34 3
60 -34 3
61 -34 3
62 -34 3
63 -34 3
64 6 17
65 6 17
66 6 17
67 -5 -4
68 -5 -4
69 -35 27
70 -35 27
71 -35 27
72 3 -9
73 3 -9
74 3 -9
75 3 -9
76 3 -9
77 3 -9
78 3 -9
79 48 40
80 48 40
81 48 40
82 -41 -11
83 -41 -11
84 -41 -11
85 -41 -11
86 -31 28
87 -31 28
88 -31 28
89 -31 28
90 -31 28
91 -31 28
92 -47 -24
93 -47 -24
94 -47 -24
95 -47 -24
96 -47 -24
97 -47 -24
98 0 -40
99 0 -40
100 0 -40
101 0 -40
102 0 -40
103 0 -40
104 0 -40
105 -21 42
106 -21 42
107 -21 42
108 -21 42
109 17 35
110 17 35
111 17 35
112 17 35
113 45 -21
114 45 -21
115 45 -21
116 45 -21
117 45 -21
118 45 -21
119 40 -13
120 40 -13
121 40 -13
122 40 -13
123 40 -13
124 40 -13
125 40 -13
126 40 -13
127 -32 49
128 -32 49
129 -32 49
130 -32 49
131 -32 49
132 -32 49
133 32 -41
134 32 -41
135 32 -41
136 32 -41
137 -18 -49
138 -18 -49
139 -18 -49
140 -18 -49
141 -18 -49
142 -18 -49
143 -34 12
144 -34 12
145 -34 12
146 -34 12
147 -43 50
148 -43 50
149 -43 50
150 -43 50
151 32 44
152 -8 -25
153 -8 -25
154 -8 -25
155 46 -44
156 46 -44
157 46 -44
158 46 -44
159 46 -44
160 -36 36
161 -36 36
162 -36 36
163 -36 36
164 47 5
165 47 5
166 47 5
167 47 5
168 47 5
169 47 5
170 47 5
171 5 11
172 5 11
173 5 11
174 5 11
175 5 11
176 5 11
177 5 11
178 -41 22
179 -41 22
180 -41 22
181 -41 22
182 32 -4
183 32 -4
184 32 -4
185 32 -4
186 11 -15
187 11 -15
188 11 -15
189 11 -15
190 11 -15
191 11 -15
192 11 -15
193 15 47
194 15 47
195 15 47
196 -3 -10
197 -3 -10
198 -3 -10
199 -35 -44
200 -35 -44
201 -35 -44
202 -35 -44
203 -38 26
204 -38 26
205 -38 26
206 14 44
207 14 44
208 14 44
209 14 44
210 -25 -7
211 -25 -7
212 -25 -7
213 -25 -7
214 -25 -7
215 -25 -7
216 -25 -7
217 13 16
218 13 16
219 13 16
220 13 16
221 13 16
222 -48 48
223 -48 48
224 -48 48
225 -48 48
226 -48 48
227 -48 48
228 4 -15
229 4 -15
230 4 -15
231 4 -15
232 4 -15
233 4 -15
234 4 -15
235 -6 -50
236 -6 -50
237 -6 -50
238 -6 -50
239 -6 -50
240 -6 -50
241 17 -42
242 17 -42
243 17 -42
244 17 -42
245 17 -42
246 24 5
247 24 5
248 24 5
249 24 5
250 24 5
251 24 5
252 24 5
253 39 -34
254 39 -34
255 39 -34
256 39 -34
257 39 -34
258 39 -34
259 39 -34
260 13 -29
261 13 -29
262 13 -29
263 13 -29
264 13 -29
265 -41 47
266 -41 47
267 -41 47
268 -41 47
269 -41 47
270 -41 47
271 -41 47
272 16 39
273 16 39
274 16 39
275 16 39
276 16 39
277 16 39
278 16 39
279 50 -6
280 50 -6
281 50 -6
282 50 -6
283 50 -6
284 44 -1
285 44 -1
286 44 -1
287 44 -1
288 -27 33
289 -27 33
290 -27 33
291 -27 33
292 -27 33
293 -27 33
294 -27 33
295 -27 33
296 -49 -36
297 -49 -36
298 -49 -36
299 -49 -36
300 -49 -36
301 6 23
302 6 23
303 6 23
304 -31 -9
305 -31 -9
306 -31 -9
307 -31 -9
308 -31 -9
309 12 -38
310 12 -38
311 12 -38
312 -33 17
313 -33 17
314 -33 17
315 -33 17
316 -33 17
317 -34 22
318 -34 22
319 -34 22
320 -34 22
321 21 47
322 21 47
323 21 47
324 44 0
325 44 0
326 44 0
327 44 0
328 40 -33
329 40 -33
330 36 49
331 36 49
332 36 49
333 36 49
334 36 49
335 36 49
336 -22 -8
337 -22 -8
338 -18 25
339 -18 25
340 -18 25
341 -18 25
342 -18 25
343 -34 -14
344 -34 -14
345 -34 -14
346 -34 -14
347 -21 25
348 -21 25
349 -21 25
350 -47 10
351 -47 10
352 -47 10
353 -47 10
354 -47 10
355 11 6
356 11 6
357 11 6
358 11 6
359 11 6
360 8 -26
361 8 -26
362 8 -26
363 8 -26
364 8 -26
365 8 -26
366 8 -26
367 -46 -28
368 -46 -28
369 -46 -28
370 -46 -28
371 -46 -28
372 -46 -28
373 -42 -17
374 -42 -17
375 -42 -17
376 -42 -17
377 -42 -17
378 -42 -17
379 -42 -17
380 -42 -17
381 -10 24
382 -10 24
383 34 -14
384 34 -14
385 34 -14
386 34 -14
387 34 -14
388 34 -14
389 9 -24
390 9 -24
391 9 -24
392 9 -24
393 9 -24
394 -24 17
395 -24 17
396 -24 17
397 -24 17
398 -24 17
399 -24 17
400 -29 23
401 -29 23
402 -29 23
403 -29 23
404 -29 23
405 -29 23
406 10 22
407 10 22
408 10 22
409 10 22
410 10 22
411 10 22
412 10 22
413 20 -14
414 20 -14
415 20 -14
416 20 -14
417 -46 -30
418 -46 -30
419 -46 -30
420 -46 -30
421 -46 -30
422 13 21
423 13 21
424 13 21
425 13 21
426 50 -17
427 50 -17
428 50 -17
429 50 -17
430 32 38
431 32 38
432 32 38
433 32 38
434 32 38
435 -31 -10
436 -31 -10
437 -31 -10
438 -31 -10
439 -31 -10
440 -31 -10
441 -31 -10
442 49 45
443 49 45
444 49 45
445 49 45
446 49 45
447 49 45
448 -16 49
449 -16 49
450 -16 49
451 10 -8
452 10 -8
453 10 -8
454 10 -8
455 10 -8
456 19 24
457 19 24
458 19 24
459 19 24
460 19 24
461 19 24
462 19 24
463 -11 -49
464 -11 -49
465 -11 -49
466 -41 -44
467 -41 -44
468 -41 -44
469 -41 -44
470 -41 -44
471 -41 -44
472 -41 -44
473 -41 -44
474 -48 35
475 -48 35
476 -48 35
477 -48 35
478 -48 35
479 -32 7
480 -32 7
481 -32 7
482 -18 3
483 -18 3
484 -18 3
485 -18 39
486 -18 39
487 -18 39
488 -18 39
489 -18 39
490 -22 -9
491 -22 -9
492 -22 -9
493 -22 -9
494 -22 -9
495 -22 -9
496 -22 -9
497 10 -45
498 10 -45
499 10 -45
500 10 -45
501 10 -45
DEMAND_SECTION
1 0
2 400
3 200
4 20
5 20
6 20
7 20
8 10
9 400
10 100
11 20
12 20
13 20
14 20
15 10
16 400
17 200
18 20
19 10
20 400
21 200
22 100
23 20
24 20
25 20
26 20
27 10
28 400
29 100
30 20
31 20
32 400
33 400
34 20
35 20
36 20
37 20
38 400
39 20
40 20
41 20
42 20
43 10
44 400
45 400
46 100
47 20
48 10
49 400
50 400
51 20
52 20
53 20
54 400
55 200
56 20
57 20
58 10
59 200
60 20
61 20
62 20
63 20
64 400
65 20
66 10
67 200
68 100
69 400
70 100
71 10
72 400
73 400
74 100
75 20
76 20
77 20
78 10
79 400
80 400
81 100
82 200
83 20
84 20
85 10
86 200
87 20
88 20
89 20
90 20
91 10
92 200
93 20
94 20
95 20
96 20
97 10
98 400
99 400
100 100
101 20
102 20
103 20
104 20
105 200
106 20
107 20
108 20
109 400
110 100
111 20
112 10
113 400
114 200
115 100
116 20
117 20
118 20
119 400
120 200
121 100
122 20
123 20
124 20
125 20
126 10
127 400
128 400
129 100
130 20
131 20
132 20
133 200
134 20
135 20
136 20
137 400
138 200
139 100
140 20
141 20
142 10
143 400
144 200
145 100
146 10
147 400
148 20
149 20
150 10
151 400
152 400
153 400
154 20
155 400
156 200
157 100
158 20
159 10
160 400
161 100
162 20
163 10
164 400
165 400
166 100
167 20
168 20
169 20
170 10
171 400
172 200
173 100
174 20
175 20
176 20
177 10
178 400
179 100
180 20
181 10
182 200
183 100
184 20
185 20
186 400
187 200
188 100
189 20
190 20
191 20
192 10
193 400
194 20
195 10
196 400
197 100
198 20
199 400
200 400
201 20
202 20
203 400
204 400
205 200
206 200
207 100
208 20
209 10
210 400
211 200
212 100
213 20
214 20
215 20
216 10
217 400
218 200
219 100
220 20
221 20
222 200
223 20
224 20
225 20
226 20
227 10
228 200
229 100
230 20
231 20
232 20
233 20
234 10
235 400
236 400
237 20
238 20
239 20
240 10
241 200
242 20
243 20
244 20
245 20
246 200
247 100
248 20
249 20
250 20
251 20
252 10
253 400
254 100
255 20
256 20
257 20
258 20
259 10
260 400
261 200
262 20
263 20
264 20
265 400
266 400
267 100
268 20
269 20
270 20
271 10
272 200
273 100
274 20
275 20
276 20
277 20
278 10
279 400
280 400
281 20
282 20
283 10
284 200
285 20
286 20
287 20
288 400
289 200
290 100
291 20
292 20
293 20
294 20
295 10
296 400
297 100
298 20
299 20
300 20
301 400
302 20
303 20
304 400
305 20
306 20
307 20
308 20
309 400
310 400
311 100
312 400
313 100
314 20
315 20
316 10
317 400
318 20
319 20
320 10
321 200
322 100
323 20
324 400
325 100
326 20
327 20
328 200
329 100
330 400
331 400
332 100
333 20
334 20
335 20
336 400
337 400
338 400
339 200
340 20
341 20
342 10
343 400
344 20
345 20
346 20
347 400
348 200
349 20
350 400
351 100
352 20
353 20
354 10
355 400
356 200
357 20
358 20
359 10
360 400
361 400
362 100
363 20
364 20
365 20
366 10
367 400
368 400
369 20
370 20
371 20
372 20
373 400
374 400
375 100
376 20
377 20
378 20
379 20
380 10
381 200
382 100
383 200
384 100
385 20
386 20
387 20
388 10
389 400
390 200
391 20
392 20
393 10
394 400
395 400
396 100
397 20
398 20
399 10
400 400
401 400
402 100
403 20
404 20
405 10
406 400
407 200
408 100
409 20
410 20
411 20
412 10
413 400
414 400
415 100
416 10
417 400
418 400
419 20
420 20
421 10
422 400
423 100
424 20
425 20
426 400
427 400
428 20
429 10
430 200
431 100
432 20
433 20
434 10
435 400
436 400
437 20
438 20
439 20
440 20
441 10
442 400
443 200
444 100
445 20
446 20
447 10
448 400
449 100
450 20
451 400
452 200
453 100
454 20
455 20
456 200
457 100
458 20
459 20
460 20
461 20
462 10
463 400
464 100
465 20
466 400
467 400
468 100
469 20
470 20
471 20
472 20
473 10
474 400
475 200
476 20
477 20
478 20
479 400
480 200
481 100
482 400
483 400
484 20
485 400
486 200
487 100
488 20
489 20
490 400
491 400
492 100
493 20
494 20
495 20
496 10
497 400
498 400
499 100
500 20
501 20
DEPOT_SECTION
1
-1
EOF