SDVRP instances/custom_instances/p03_7_splitx10_0.sol
500 -3 6 5 378 377 379 376 375 96 92 95 93 94 91 296 299 298 297 295 470 467 468 471 472 466 465 469 -7 2 4 1 304 307 305 306 303 437 436 438 439 435 434 440 -10 13 9 14 395 394 393 404 399 402 401 400 403 -11 8 12 348 346 347 338 337 381 380 -18 17 15 16 43 47 46 45 44 259 263 261 -19 20 22 25 21 24 23 26 449 448 447 484 487 485 -31 33 36 32 34 35 199 200 198 201 66 -58 59 60 61 62 84 82 83 81 373 372 374 342 344 343 345 214 215 -63 65 64 302 300 301 407 408 406 409 405 411 410 -67 416 419 417 420 418 371 370 368 367 369 366 492 494 493 -71 72 74 76 75 77 73 453 451 450 452 454 -89 90 87 88 86 85 68 70 69 204 203 202 317 398 396 397 -102 100 99 97 101 98 103 239 237 234 235 238 236 463 -111 110 109 108 273 277 276 274 272 271 275 320 322 321 194 192 193 208 207 206 205 -117 113 112 116 115 114 327 328 252 258 254 257 253 256 255 188 191 187 186 -118 124 123 120 121 122 119 125 426 427 425 428 385 382 387 383 386 384 -135 132 134 133 157 156 154 158 155 29 28 27 30 244 242 241 243 240 310 -150 332 334 329 330 333 331 429 432 433 460 457 455 461 458 459 456 -152 151 153 137 138 139 141 140 136 462 464 -159 160 50 49 48 52 474 475 477 473 476 -162 161 51 223 221 225 224 226 222 149 146 147 148 265 267 268 266 270 264 269 291 294 289 293 290 292 -164 165 167 168 169 166 163 251 250 245 246 247 248 249 357 354 355 -171 174 175 176 173 172 170 421 423 422 424 217 216 220 -181 183 184 182 278 279 280 282 281 283 286 284 285 325 323 324 326 -189 190 185 55 53 57 54 56 412 415 413 414 -196 197 195 489 495 491 490 335 -218 219 430 431 444 441 445 442 446 443 78 80 79 356 358 -229 227 233 228 232 363 362 361 360 364 365 359 391 389 390 392 388 -230 231 498 500 496 499 497 309 308 262 260 -315 312 311 313 314 142 143 144 145 478 480 479 -318 319 316 177 179 178 180 42 38 37 41 39 40 352 353 351 349 350 -336 209 213 211 210 212 481 482 483 -340 339 341 287 288 129 128 126 131 127 130 105 106 107 104 488 486 0 





OBJ=
3133.182
BEST_KNOWN=
0.000